c *********************************
c * Circuit generated by BenCGen
c *
c * CarrySkipAdder_50_50_50_InOut_G4T
c *
c * Ports with 1 gate(s): 15
c * Ports with 2 gate(s): 278
c * Ports with 4 gate(s): 12
c * Total gates: 305
c *********************************
p cnf 405 1024
1 153 0
-1 -153 0
1 -152 0
153 -152 0
-1 -153 152 0
1 51 -156 0
-1 51 156 0
1 -51 156 0
-1 -51 -156 0
156 152 -101 0
-156 152 101 0
156 -152 101 0
-156 -152 -101 0
152 -157 0
156 -157 0
-152 -156 157 0
51 -158 0
1 -158 0
-51 -1 158 0
-157 155 0
-158 155 0
157 158 -155 0
2 52 -160 0
-2 52 160 0
2 -52 160 0
-2 -52 -160 0
160 155 -102 0
-160 155 102 0
160 -155 102 0
-160 -155 -102 0
155 -161 0
160 -161 0
-155 -160 161 0
52 -162 0
2 -162 0
-52 -2 162 0
-161 159 0
-162 159 0
161 162 -159 0
3 53 -164 0
-3 53 164 0
3 -53 164 0
-3 -53 -164 0
164 159 -103 0
-164 159 103 0
164 -159 103 0
-164 -159 -103 0
159 -165 0
164 -165 0
-159 -164 165 0
53 -166 0
3 -166 0
-53 -3 166 0
-165 163 0
-166 163 0
165 166 -163 0
4 54 -167 0
-4 54 167 0
4 -54 167 0
-4 -54 -167 0
167 163 -104 0
-167 163 104 0
167 -163 104 0
-167 -163 -104 0
163 -168 0
167 -168 0
-163 -167 168 0
54 -169 0
4 -169 0
-54 -4 169 0
-168 154 0
-169 154 0
168 169 -154 0
156 -170 0
160 -170 0
164 -170 0
167 -170 0
-156 -160 -164 -167 170 0
169 -171 0
-169 171 0
152 -172 0
170 -172 0
-152 -170 172 0
-172 173 0
-154 173 0
172 154 -173 0
5 55 -176 0
-5 55 176 0
5 -55 176 0
-5 -55 -176 0
176 173 -105 0
-176 173 105 0
176 -173 105 0
-176 -173 -105 0
173 -177 0
176 -177 0
-173 -176 177 0
55 -178 0
5 -178 0
-55 -5 178 0
-177 175 0
-178 175 0
177 178 -175 0
6 56 -180 0
-6 56 180 0
6 -56 180 0
-6 -56 -180 0
180 175 -106 0
-180 175 106 0
180 -175 106 0
-180 -175 -106 0
175 -181 0
180 -181 0
-175 -180 181 0
56 -182 0
6 -182 0
-56 -6 182 0
-181 179 0
-182 179 0
181 182 -179 0
7 57 -184 0
-7 57 184 0
7 -57 184 0
-7 -57 -184 0
184 179 -107 0
-184 179 107 0
184 -179 107 0
-184 -179 -107 0
179 -185 0
184 -185 0
-179 -184 185 0
57 -186 0
7 -186 0
-57 -7 186 0
-185 183 0
-186 183 0
185 186 -183 0
8 58 -187 0
-8 58 187 0
8 -58 187 0
-8 -58 -187 0
187 183 -108 0
-187 183 108 0
187 -183 108 0
-187 -183 -108 0
183 -188 0
187 -188 0
-183 -187 188 0
58 -189 0
8 -189 0
-58 -8 189 0
-188 174 0
-189 174 0
188 189 -174 0
176 -190 0
180 -190 0
184 -190 0
187 -190 0
-176 -180 -184 -187 190 0
189 -191 0
-189 191 0
173 -192 0
190 -192 0
-173 -190 192 0
-192 193 0
-174 193 0
192 174 -193 0
9 59 -196 0
-9 59 196 0
9 -59 196 0
-9 -59 -196 0
196 193 -109 0
-196 193 109 0
196 -193 109 0
-196 -193 -109 0
193 -197 0
196 -197 0
-193 -196 197 0
59 -198 0
9 -198 0
-59 -9 198 0
-197 195 0
-198 195 0
197 198 -195 0
10 60 -200 0
-10 60 200 0
10 -60 200 0
-10 -60 -200 0
200 195 -110 0
-200 195 110 0
200 -195 110 0
-200 -195 -110 0
195 -201 0
200 -201 0
-195 -200 201 0
60 -202 0
10 -202 0
-60 -10 202 0
-201 199 0
-202 199 0
201 202 -199 0
11 61 -204 0
-11 61 204 0
11 -61 204 0
-11 -61 -204 0
204 199 -111 0
-204 199 111 0
204 -199 111 0
-204 -199 -111 0
199 -205 0
204 -205 0
-199 -204 205 0
61 -206 0
11 -206 0
-61 -11 206 0
-205 203 0
-206 203 0
205 206 -203 0
12 62 -207 0
-12 62 207 0
12 -62 207 0
-12 -62 -207 0
207 203 -112 0
-207 203 112 0
207 -203 112 0
-207 -203 -112 0
203 -208 0
207 -208 0
-203 -207 208 0
62 -209 0
12 -209 0
-62 -12 209 0
-208 194 0
-209 194 0
208 209 -194 0
196 -210 0
200 -210 0
204 -210 0
207 -210 0
-196 -200 -204 -207 210 0
209 -211 0
-209 211 0
193 -212 0
210 -212 0
-193 -210 212 0
-212 213 0
-194 213 0
212 194 -213 0
13 63 -216 0
-13 63 216 0
13 -63 216 0
-13 -63 -216 0
216 213 -113 0
-216 213 113 0
216 -213 113 0
-216 -213 -113 0
213 -217 0
216 -217 0
-213 -216 217 0
63 -218 0
13 -218 0
-63 -13 218 0
-217 215 0
-218 215 0
217 218 -215 0
14 64 -220 0
-14 64 220 0
14 -64 220 0
-14 -64 -220 0
220 215 -114 0
-220 215 114 0
220 -215 114 0
-220 -215 -114 0
215 -221 0
220 -221 0
-215 -220 221 0
64 -222 0
14 -222 0
-64 -14 222 0
-221 219 0
-222 219 0
221 222 -219 0
15 65 -224 0
-15 65 224 0
15 -65 224 0
-15 -65 -224 0
224 219 -115 0
-224 219 115 0
224 -219 115 0
-224 -219 -115 0
219 -225 0
224 -225 0
-219 -224 225 0
65 -226 0
15 -226 0
-65 -15 226 0
-225 223 0
-226 223 0
225 226 -223 0
16 66 -227 0
-16 66 227 0
16 -66 227 0
-16 -66 -227 0
227 223 -116 0
-227 223 116 0
227 -223 116 0
-227 -223 -116 0
223 -228 0
227 -228 0
-223 -227 228 0
66 -229 0
16 -229 0
-66 -16 229 0
-228 214 0
-229 214 0
228 229 -214 0
216 -230 0
220 -230 0
224 -230 0
227 -230 0
-216 -220 -224 -227 230 0
229 -231 0
-229 231 0
213 -232 0
230 -232 0
-213 -230 232 0
-232 233 0
-214 233 0
232 214 -233 0
17 67 -236 0
-17 67 236 0
17 -67 236 0
-17 -67 -236 0
236 233 -117 0
-236 233 117 0
236 -233 117 0
-236 -233 -117 0
233 -237 0
236 -237 0
-233 -236 237 0
67 -238 0
17 -238 0
-67 -17 238 0
-237 235 0
-238 235 0
237 238 -235 0
18 68 -240 0
-18 68 240 0
18 -68 240 0
-18 -68 -240 0
240 235 -118 0
-240 235 118 0
240 -235 118 0
-240 -235 -118 0
235 -241 0
240 -241 0
-235 -240 241 0
68 -242 0
18 -242 0
-68 -18 242 0
-241 239 0
-242 239 0
241 242 -239 0
19 69 -244 0
-19 69 244 0
19 -69 244 0
-19 -69 -244 0
244 239 -119 0
-244 239 119 0
244 -239 119 0
-244 -239 -119 0
239 -245 0
244 -245 0
-239 -244 245 0
69 -246 0
19 -246 0
-69 -19 246 0
-245 243 0
-246 243 0
245 246 -243 0
20 70 -247 0
-20 70 247 0
20 -70 247 0
-20 -70 -247 0
247 243 -120 0
-247 243 120 0
247 -243 120 0
-247 -243 -120 0
243 -248 0
247 -248 0
-243 -247 248 0
70 -249 0
20 -249 0
-70 -20 249 0
-248 234 0
-249 234 0
248 249 -234 0
236 -250 0
240 -250 0
244 -250 0
247 -250 0
-236 -240 -244 -247 250 0
249 -251 0
-249 251 0
233 -252 0
250 -252 0
-233 -250 252 0
-252 253 0
-234 253 0
252 234 -253 0
21 71 -256 0
-21 71 256 0
21 -71 256 0
-21 -71 -256 0
256 253 -121 0
-256 253 121 0
256 -253 121 0
-256 -253 -121 0
253 -257 0
256 -257 0
-253 -256 257 0
71 -258 0
21 -258 0
-71 -21 258 0
-257 255 0
-258 255 0
257 258 -255 0
22 72 -260 0
-22 72 260 0
22 -72 260 0
-22 -72 -260 0
260 255 -122 0
-260 255 122 0
260 -255 122 0
-260 -255 -122 0
255 -261 0
260 -261 0
-255 -260 261 0
72 -262 0
22 -262 0
-72 -22 262 0
-261 259 0
-262 259 0
261 262 -259 0
23 73 -264 0
-23 73 264 0
23 -73 264 0
-23 -73 -264 0
264 259 -123 0
-264 259 123 0
264 -259 123 0
-264 -259 -123 0
259 -265 0
264 -265 0
-259 -264 265 0
73 -266 0
23 -266 0
-73 -23 266 0
-265 263 0
-266 263 0
265 266 -263 0
24 74 -267 0
-24 74 267 0
24 -74 267 0
-24 -74 -267 0
267 263 -124 0
-267 263 124 0
267 -263 124 0
-267 -263 -124 0
263 -268 0
267 -268 0
-263 -267 268 0
74 -269 0
24 -269 0
-74 -24 269 0
-268 254 0
-269 254 0
268 269 -254 0
256 -270 0
260 -270 0
264 -270 0
267 -270 0
-256 -260 -264 -267 270 0
269 -271 0
-269 271 0
253 -272 0
270 -272 0
-253 -270 272 0
-272 273 0
-254 273 0
272 254 -273 0
25 75 -276 0
-25 75 276 0
25 -75 276 0
-25 -75 -276 0
276 273 -125 0
-276 273 125 0
276 -273 125 0
-276 -273 -125 0
273 -277 0
276 -277 0
-273 -276 277 0
75 -278 0
25 -278 0
-75 -25 278 0
-277 275 0
-278 275 0
277 278 -275 0
26 76 -280 0
-26 76 280 0
26 -76 280 0
-26 -76 -280 0
280 275 -126 0
-280 275 126 0
280 -275 126 0
-280 -275 -126 0
275 -281 0
280 -281 0
-275 -280 281 0
76 -282 0
26 -282 0
-76 -26 282 0
-281 279 0
-282 279 0
281 282 -279 0
27 77 -284 0
-27 77 284 0
27 -77 284 0
-27 -77 -284 0
284 279 -127 0
-284 279 127 0
284 -279 127 0
-284 -279 -127 0
279 -285 0
284 -285 0
-279 -284 285 0
77 -286 0
27 -286 0
-77 -27 286 0
-285 283 0
-286 283 0
285 286 -283 0
28 78 -287 0
-28 78 287 0
28 -78 287 0
-28 -78 -287 0
287 283 -128 0
-287 283 128 0
287 -283 128 0
-287 -283 -128 0
283 -288 0
287 -288 0
-283 -287 288 0
78 -289 0
28 -289 0
-78 -28 289 0
-288 274 0
-289 274 0
288 289 -274 0
276 -290 0
280 -290 0
284 -290 0
287 -290 0
-276 -280 -284 -287 290 0
289 -291 0
-289 291 0
273 -292 0
290 -292 0
-273 -290 292 0
-292 293 0
-274 293 0
292 274 -293 0
29 79 -296 0
-29 79 296 0
29 -79 296 0
-29 -79 -296 0
296 293 -129 0
-296 293 129 0
296 -293 129 0
-296 -293 -129 0
293 -297 0
296 -297 0
-293 -296 297 0
79 -298 0
29 -298 0
-79 -29 298 0
-297 295 0
-298 295 0
297 298 -295 0
30 80 -300 0
-30 80 300 0
30 -80 300 0
-30 -80 -300 0
300 295 -130 0
-300 295 130 0
300 -295 130 0
-300 -295 -130 0
295 -301 0
300 -301 0
-295 -300 301 0
80 -302 0
30 -302 0
-80 -30 302 0
-301 299 0
-302 299 0
301 302 -299 0
31 81 -304 0
-31 81 304 0
31 -81 304 0
-31 -81 -304 0
304 299 -131 0
-304 299 131 0
304 -299 131 0
-304 -299 -131 0
299 -305 0
304 -305 0
-299 -304 305 0
81 -306 0
31 -306 0
-81 -31 306 0
-305 303 0
-306 303 0
305 306 -303 0
32 82 -307 0
-32 82 307 0
32 -82 307 0
-32 -82 -307 0
307 303 -132 0
-307 303 132 0
307 -303 132 0
-307 -303 -132 0
303 -308 0
307 -308 0
-303 -307 308 0
82 -309 0
32 -309 0
-82 -32 309 0
-308 294 0
-309 294 0
308 309 -294 0
296 -310 0
300 -310 0
304 -310 0
307 -310 0
-296 -300 -304 -307 310 0
309 -311 0
-309 311 0
293 -312 0
310 -312 0
-293 -310 312 0
-312 313 0
-294 313 0
312 294 -313 0
33 83 -316 0
-33 83 316 0
33 -83 316 0
-33 -83 -316 0
316 313 -133 0
-316 313 133 0
316 -313 133 0
-316 -313 -133 0
313 -317 0
316 -317 0
-313 -316 317 0
83 -318 0
33 -318 0
-83 -33 318 0
-317 315 0
-318 315 0
317 318 -315 0
34 84 -320 0
-34 84 320 0
34 -84 320 0
-34 -84 -320 0
320 315 -134 0
-320 315 134 0
320 -315 134 0
-320 -315 -134 0
315 -321 0
320 -321 0
-315 -320 321 0
84 -322 0
34 -322 0
-84 -34 322 0
-321 319 0
-322 319 0
321 322 -319 0
35 85 -324 0
-35 85 324 0
35 -85 324 0
-35 -85 -324 0
324 319 -135 0
-324 319 135 0
324 -319 135 0
-324 -319 -135 0
319 -325 0
324 -325 0
-319 -324 325 0
85 -326 0
35 -326 0
-85 -35 326 0
-325 323 0
-326 323 0
325 326 -323 0
36 86 -327 0
-36 86 327 0
36 -86 327 0
-36 -86 -327 0
327 323 -136 0
-327 323 136 0
327 -323 136 0
-327 -323 -136 0
323 -328 0
327 -328 0
-323 -327 328 0
86 -329 0
36 -329 0
-86 -36 329 0
-328 314 0
-329 314 0
328 329 -314 0
316 -330 0
320 -330 0
324 -330 0
327 -330 0
-316 -320 -324 -327 330 0
329 -331 0
-329 331 0
313 -332 0
330 -332 0
-313 -330 332 0
-332 333 0
-314 333 0
332 314 -333 0
37 87 -336 0
-37 87 336 0
37 -87 336 0
-37 -87 -336 0
336 333 -137 0
-336 333 137 0
336 -333 137 0
-336 -333 -137 0
333 -337 0
336 -337 0
-333 -336 337 0
87 -338 0
37 -338 0
-87 -37 338 0
-337 335 0
-338 335 0
337 338 -335 0
38 88 -340 0
-38 88 340 0
38 -88 340 0
-38 -88 -340 0
340 335 -138 0
-340 335 138 0
340 -335 138 0
-340 -335 -138 0
335 -341 0
340 -341 0
-335 -340 341 0
88 -342 0
38 -342 0
-88 -38 342 0
-341 339 0
-342 339 0
341 342 -339 0
39 89 -344 0
-39 89 344 0
39 -89 344 0
-39 -89 -344 0
344 339 -139 0
-344 339 139 0
344 -339 139 0
-344 -339 -139 0
339 -345 0
344 -345 0
-339 -344 345 0
89 -346 0
39 -346 0
-89 -39 346 0
-345 343 0
-346 343 0
345 346 -343 0
40 90 -347 0
-40 90 347 0
40 -90 347 0
-40 -90 -347 0
347 343 -140 0
-347 343 140 0
347 -343 140 0
-347 -343 -140 0
343 -348 0
347 -348 0
-343 -347 348 0
90 -349 0
40 -349 0
-90 -40 349 0
-348 334 0
-349 334 0
348 349 -334 0
336 -350 0
340 -350 0
344 -350 0
347 -350 0
-336 -340 -344 -347 350 0
349 -351 0
-349 351 0
333 -352 0
350 -352 0
-333 -350 352 0
-352 353 0
-334 353 0
352 334 -353 0
41 91 -356 0
-41 91 356 0
41 -91 356 0
-41 -91 -356 0
356 353 -141 0
-356 353 141 0
356 -353 141 0
-356 -353 -141 0
353 -357 0
356 -357 0
-353 -356 357 0
91 -358 0
41 -358 0
-91 -41 358 0
-357 355 0
-358 355 0
357 358 -355 0
42 92 -360 0
-42 92 360 0
42 -92 360 0
-42 -92 -360 0
360 355 -142 0
-360 355 142 0
360 -355 142 0
-360 -355 -142 0
355 -361 0
360 -361 0
-355 -360 361 0
92 -362 0
42 -362 0
-92 -42 362 0
-361 359 0
-362 359 0
361 362 -359 0
43 93 -364 0
-43 93 364 0
43 -93 364 0
-43 -93 -364 0
364 359 -143 0
-364 359 143 0
364 -359 143 0
-364 -359 -143 0
359 -365 0
364 -365 0
-359 -364 365 0
93 -366 0
43 -366 0
-93 -43 366 0
-365 363 0
-366 363 0
365 366 -363 0
44 94 -367 0
-44 94 367 0
44 -94 367 0
-44 -94 -367 0
367 363 -144 0
-367 363 144 0
367 -363 144 0
-367 -363 -144 0
363 -368 0
367 -368 0
-363 -367 368 0
94 -369 0
44 -369 0
-94 -44 369 0
-368 354 0
-369 354 0
368 369 -354 0
356 -370 0
360 -370 0
364 -370 0
367 -370 0
-356 -360 -364 -367 370 0
369 -371 0
-369 371 0
353 -372 0
370 -372 0
-353 -370 372 0
-372 373 0
-354 373 0
372 354 -373 0
45 95 -376 0
-45 95 376 0
45 -95 376 0
-45 -95 -376 0
376 373 -145 0
-376 373 145 0
376 -373 145 0
-376 -373 -145 0
373 -377 0
376 -377 0
-373 -376 377 0
95 -378 0
45 -378 0
-95 -45 378 0
-377 375 0
-378 375 0
377 378 -375 0
46 96 -380 0
-46 96 380 0
46 -96 380 0
-46 -96 -380 0
380 375 -146 0
-380 375 146 0
380 -375 146 0
-380 -375 -146 0
375 -381 0
380 -381 0
-375 -380 381 0
96 -382 0
46 -382 0
-96 -46 382 0
-381 379 0
-382 379 0
381 382 -379 0
47 97 -384 0
-47 97 384 0
47 -97 384 0
-47 -97 -384 0
384 379 -147 0
-384 379 147 0
384 -379 147 0
-384 -379 -147 0
379 -385 0
384 -385 0
-379 -384 385 0
97 -386 0
47 -386 0
-97 -47 386 0
-385 383 0
-386 383 0
385 386 -383 0
48 98 -387 0
-48 98 387 0
48 -98 387 0
-48 -98 -387 0
387 383 -148 0
-387 383 148 0
387 -383 148 0
-387 -383 -148 0
383 -388 0
387 -388 0
-383 -387 388 0
98 -389 0
48 -389 0
-98 -48 389 0
-388 374 0
-389 374 0
388 389 -374 0
376 -390 0
380 -390 0
384 -390 0
387 -390 0
-376 -380 -384 -387 390 0
389 -391 0
-389 391 0
373 -392 0
390 -392 0
-373 -390 392 0
-392 393 0
-374 393 0
392 374 -393 0
49 99 -396 0
-49 99 396 0
49 -99 396 0
-49 -99 -396 0
396 393 -149 0
-396 393 149 0
396 -393 149 0
-396 -393 -149 0
393 -397 0
396 -397 0
-393 -396 397 0
99 -398 0
49 -398 0
-99 -49 398 0
-397 395 0
-398 395 0
397 398 -395 0
50 100 -399 0
-50 100 399 0
50 -100 399 0
-50 -100 -399 0
399 395 -150 0
-399 395 150 0
399 -395 150 0
-399 -395 -150 0
395 -400 0
399 -400 0
-395 -399 400 0
100 -401 0
50 -401 0
-100 -50 401 0
-400 394 0
-401 394 0
400 401 -394 0
396 -402 0
399 -402 0
-396 -399 402 0
401 -403 0
-401 403 0
393 -404 0
402 -404 0
-393 -402 404 0
-404 405 0
-394 405 0
404 394 -405 0
405 -151 0
-405 151 0
